;; sequence(s): A252994
;; terms: 0 26 52 78 104 130 156 182 208 234 260 286 312 338 364 390 416 442 468 494
;; small program: loop(1 + (x * x), 2, 2) * x
;; fast program: 2 * ((2 * (2 * ((x + x) + x))) + x)
(set-logic UFNIA)
(declare-fun f0 (Int) Int)
(declare-fun g0 () Int)
(declare-fun h0 () Int)
(declare-fun u0 (Int Int) Int)
(declare-fun v0 () Int)
(declare-fun small (Int) Int)
(declare-fun fast (Int) Int)
(assert (forall ((x Int)) (= (f0 x) (+ 1 (* x x)))))
(assert (= g0 2))
(assert (= h0 2))
(assert (forall ((x Int) (y Int)) (= (u0 x y) (ite (<= x 0) y (f0 (u0 (- x 1) y))))))
(assert (= v0 (u0 g0 h0)))
(assert (forall ((x Int)) (= (small x) (* v0 x))))
(assert (forall ((x Int)) (= (fast x) (* 2 (+ (* 2 (* 2 (+ (+ x x) x))) x)))))
(assert (exists ((c Int)) (and (>= c 0) (not (= (small c) (fast c))))))
(check-sat)
